p cnf 46 25
-22 23 30 0
32 -25 15 0
12 -5 19 0
32 -32 31 0
13 11 23 0
26 -20 33 0
-42 -12 -26 0
-3 36 -22 0
44 -5 -42 0
-38 9 12 0
5 11 -10 0
-39 16 -40 0
-38 -4 13 0
-34 29 -29 0
-21 38 43 0
-41 25 34 0
-2 28 40 0
24 -29 28 0
18 17 -24 0
46 -45 -17 0
-13 15 37 0
-4 46 -14 0
16 28 -22 0
11 -13 38 0
33 -12 26 0
